param n := 10;
param k := 2;
param max_ciudades := 5;
param dist : 0 1 2 3 4 5 6 7 8 9 10 :=
0 0 14 15 15 18 20 7 25 14 15 20
1 14 0 7 25 25 14 15 15 28 15 31
2 15 7 0 22 30 21 20 22 29 10 35
3 15 25 22 0 32 35 22 40 15 14 29
4 18 25 30 32 0 18 11 25 20 33 11
5 20 14 21 35 18 0 15 7 31 29 28
6 7 15 20 22 11 15 0 22 15 22 15
7 25 15 22 40 25 7 22 0 38 31 35
8 14 28 29 15 20 31 15 38 0 25 14
9 15 15 10 14 33 29 22 31 25 0 35
10 20 31 35 29 11 28 15 35 14 35 0
;
